NAME : LPS-n17-m378
COMMENT : (Lartu-Peter-Santi Plot, instance 5978 out of 39200. 17 customers.)
TYPE : CVRP
DIMENSION : 17
EDGE_WEIGHT_TYPE : EUC_2D
CAPACITY : 84
NODE_COORD_SECTION
 1 36 6
 2 85 99
 3 66 79
 4 60 19
 5 94 51
 6 99 36
 7 92 1
 8 45 81
 9 41 70
 10 39 43
 11 39 83
 12 92 14
 13 84 68
 14 11 56
 15 15 68
 16 91 14
 17 46 17
DEMAND_SECTION
1 0
2 18
3 59
4 25
5 62
6 43
7 58
8 71
9 47
10 34
11 26
12 24
13 51
14 40
15 32
16 6
17 50
DEPOT_SECTION
 1
 -1
EOF
